Cottolengo
6 6 6 6 6 0 7 8 8 9 9 10 10 11 11 12 12 0 12 0 0 0 13 0 0 13 0 0 14 14 0 15 15 0 0 16 16 17 17 17 18 18 18 19 20 20 21 21 22 0 22 23
10 30 30 50 50 0 30 0 30 0 30 0 25 0 0 5 10 0 20 0 0 0 20 0 0 40 0 0 5 30 25 30 0 0 30 40 15 20 45 0 0 30 15 55 0 0 10 10 10 0 30 5
4 5 6 6 6 7 7 7 7 7 7 7 7 8 8 8 8 8 9 9 9 10 10 10 11 11 12 13 13 14 14 14 14 14 15 0 15 15 16 16 17 17 17 17 18 19 19 19 20 21 21 21 22
58 48 8 43 58 8 18 23 28 28 28 38 47 8 18 23 33 33 13 13 13 13 38 38 8 38 38 33 43 43 46 8 29 36 38 38 18 0 53 53 13 29 8 8 13 38 28 8 8 8 29 8 8 38 18
Piazza Bengasi
3 3 3 3 3 3 3 3 3 3 3 3 3 3 45 3 3 3 3 3 3 3 3 3 3 3 3 3 3 3 3 3 3 3 3 3 3 3 3 3 3 3 3 3 3 3 3 3 3 3 3 3 3
3 3 3 3 3 3 3 3 3 3 3 3 3 3 3 3 3 3 3 3 3 3 3 3 3 3 3 3 3 3 3 3 3 3 3 3 3 3 3 3 3 3 3 3 3 3 3 3 3 3 3 3 3
3 3 3 3 3 3 3 3 3 3 3 3 3 3 3 3 3 3 3 3 3 3 3 3 3 3 3 3 3 3 3 3 3 3 3 3 3 3 3 3 3 3 3 3 3 3 3 3 3 3 3 3 3
3 3 3 3 3 3 3 3 3 3 3 3 3 3 3 3 3 3 3 3 3 3 3 3 3 3 3 3 3 3 3 3 3 3 3 3 3 3 3 3 3 3 3 3 3 3 3 3 3 3 3 3 3